50 1225
1 2 137
1 3 105
1 4 41
1 5 64
1 6 148
1 7 70
1 8 123
1 9 132
1 10 75
1 11 141
1 12 30
1 13 12
1 14 145
1 15 148
1 16 89
1 17 142
1 18 36
1 19 84
1 20 13
1 21 121
1 22 69
1 23 8
1 24 72
1 25 141
1 26 87
1 27 45
1 28 54
1 29 94
1 30 62
1 31 73
1 32 100
1 33 31
1 34 120
1 35 70
1 36 56
1 37 3
1 38 33
1 39 104
1 40 40
1 41 141
1 42 120
1 43 76
1 44 41
1 45 0
1 46 25
1 47 35
1 48 147
1 49 115
1 50 97
2 3 16
2 4 1
2 5 145
2 6 10
2 7 69
2 8 1
2 9 106
2 10 68
2 11 102
2 12 98
2 13 10
2 14 39
2 15 11
2 16 146
2 17 68
2 18 110
2 19 67
2 20 64
2 21 42
2 22 40
2 23 105
2 24 128
2 25 47
2 26 71
2 27 102
2 28 0
2 29 39
2 30 16
2 31 143
2 32 15
2 33 16
2 34 92
2 35 102
2 36 97
2 37 143
2 38 102
2 39 36
2 40 112
2 41 66
2 42 4
2 43 77
2 44 100
2 45 101
2 46 7
2 47 84
2 48 11
2 49 33
2 50 106
3 4 52
3 5 79
3 6 0
3 7 69
3 8 43
3 9 75
3 10 128
3 11 115
3 12 114
3 13 111
3 14 67
3 15 53
3 16 79
3 17 11
3 18 83
3 19 84
3 20 16
3 21 142
3 22 59
3 23 146
3 24 87
3 25 77
3 26 109
3 27 101
3 28 84
3 29 37
3 30 74
3 31 132
3 32 57
3 33 28
3 34 105
3 35 24
3 36 114
3 37 82
3 38 101
3 39 63
3 40 75
3 41 94
3 42 12
3 43 90
3 44 81
3 45 38
3 46 116
3 47 32
3 48 36
3 49 137
3 50 26
4 5 80
4 6 1
4 7 4
4 8 132
4 9 33
4 10 137
4 11 67
4 12 86
4 13 48
4 14 146
4 15 85
4 16 111
4 17 93
4 18 58
4 19 82
4 20 62
4 21 38
4 22 47
4 23 100
4 24 31
4 25 84
4 26 98
4 27 114
4 28 91
4 29 44
4 30 34
4 31 102
4 32 84
4 33 19
4 34 28
4 35 31
4 36 91
4 37 66
4 38 105
4 39 126
4 40 50
4 41 66
4 42 102
4 43 90
4 44 132
4 45 113
4 46 40
4 47 33
4 48 144
4 49 96
4 50 116
5 6 131
5 7 32
5 8 28
5 9 144
5 10 30
5 11 120
5 12 146
5 13 87
5 14 22
5 15 77
5 16 22
5 17 77
5 18 15
5 19 113
5 20 122
5 21 125
5 22 58
5 23 80
5 24 57
5 25 1
5 26 38
5 27 27
5 28 114
5 29 69
5 30 24
5 31 11
5 32 37
5 33 84
5 34 46
5 35 127
5 36 91
5 37 8
5 38 54
5 39 9
5 40 101
5 41 147
5 42 128
5 43 105
5 44 102
5 45 111
5 46 64
5 47 13
5 48 131
5 49 55
5 50 62
6 7 139
6 8 97
6 9 64
6 10 30
6 11 27
6 12 135
6 13 84
6 14 67
6 15 133
6 16 66
6 17 56
6 18 108
6 19 29
6 20 42
6 21 43
6 22 114
6 23 49
6 24 74
6 25 145
6 26 119
6 27 68
6 28 45
6 29 127
6 30 123
6 31 125
6 32 84
6 33 145
6 34 11
6 35 10
6 36 23
6 37 71
6 38 56
6 39 16
6 40 16
6 41 53
6 42 27
6 43 125
6 44 28
6 45 7
6 46 65
6 47 78
6 48 93
6 49 137
6 50 110
7 8 13
7 9 125
7 10 11
7 11 1
7 12 136
7 13 146
7 14 146
7 15 38
7 16 57
7 17 21
7 18 39
7 19 105
7 20 122
7 21 62
7 22 102
7 23 125
7 24 87
7 25 4
7 26 92
7 27 43
7 28 119
7 29 119
7 30 79
7 31 32
7 32 70
7 33 14
7 34 135
7 35 45
7 36 48
7 37 51
7 38 78
7 39 77
7 40 52
7 41 118
7 42 87
7 43 103
7 44 69
7 45 129
7 46 81
7 47 81
7 48 97
7 49 34
7 50 15
8 9 12
8 10 74
8 11 70
8 12 134
8 13 86
8 14 128
8 15 80
8 16 135
8 17 134
8 18 111
8 19 3
8 20 107
8 21 115
8 22 134
8 23 116
8 24 78
8 25 146
8 26 126
8 27 87
8 28 97
8 29 130
8 30 32
8 31 146
8 32 81
8 33 55
8 34 9
8 35 124
8 36 9
8 37 100
8 38 44
8 39 138
8 40 107
8 41 60
8 42 16
8 43 55
8 44 10
8 45 100
8 46 111
8 47 43
8 48 133
8 49 65
8 50 145
9 10 53
9 11 149
9 12 45
9 13 46
9 14 122
9 15 69
9 16 11
9 17 24
9 18 112
9 19 86
9 20 90
9 21 137
9 22 10
9 23 84
9 24 73
9 25 71
9 26 48
9 27 64
9 28 111
9 29 35
9 30 96
9 31 38
9 32 32
9 33 2
9 34 72
9 35 127
9 36 53
9 37 128
9 38 114
9 39 130
9 40 120
9 41 60
9 42 96
9 43 111
9 44 12
9 45 28
9 46 107
9 47 3
9 48 96
9 49 120
9 50 84
10 11 122
10 12 97
10 13 96
10 14 105
10 15 22
10 16 84
10 17 90
10 18 55
10 19 37
10 20 36
10 21 10
10 22 100
10 23 94
10 24 117
10 25 126
10 26 19
10 27 43
10 28 140
10 29 92
10 30 47
10 31 59
10 32 54
10 33 141
10 34 49
10 35 112
10 36 121
10 37 60
10 38 115
10 39 47
10 40 19
10 41 32
10 42 105
10 43 105
10 44 49
10 45 100
10 46 45
10 47 20
10 48 86
10 49 108
10 50 87
11 12 70
11 13 0
11 14 35
11 15 34
11 16 75
11 17 60
11 18 55
11 19 111
11 20 93
11 21 85
11 22 63
11 23 80
11 24 128
11 25 137
11 26 7
11 27 141
11 28 120
11 29 139
11 30 17
11 31 58
11 32 59
11 33 103
11 34 43
11 35 18
11 36 78
11 37 95
11 38 120
11 39 77
11 40 75
11 41 74
11 42 116
11 43 112
11 44 61
11 45 105
11 46 141
11 47 139
11 48 1
11 49 83
11 50 80
12 13 78
12 14 102
12 15 103
12 16 25
12 17 23
12 18 41
12 19 15
12 20 25
12 21 107
12 22 117
12 23 45
12 24 31
12 25 135
12 26 99
12 27 113
12 28 142
12 29 67
12 30 120
12 31 57
12 32 46
12 33 136
12 34 45
12 35 30
12 36 101
12 37 144
12 38 46
12 39 26
12 40 74
12 41 54
12 42 37
12 43 35
12 44 30
12 45 53
12 46 25
12 47 120
12 48 82
12 49 106
12 50 93
13 14 8
13 15 89
13 16 90
13 17 36
13 18 48
13 19 124
13 20 51
13 21 100
13 22 92
13 23 10
13 24 18
13 25 86
13 26 92
13 27 50
13 28 113
13 29 22
13 30 88
13 31 24
13 32 131
13 33 12
13 34 100
13 35 11
13 36 28
13 37 59
13 38 146
13 39 115
13 40 72
13 41 56
13 42 141
13 43 102
13 44 51
13 45 97
13 46 39
13 47 98
13 48 145
13 49 84
13 50 19
14 15 140
14 16 134
14 17 25
14 18 5
14 19 147
14 20 126
14 21 59
14 22 59
14 23 48
14 24 100
14 25 139
14 26 125
14 27 82
14 28 129
14 29 18
14 30 55
14 31 40
14 32 82
14 33 98
14 34 32
14 35 101
14 36 123
14 37 30
14 38 58
14 39 130
14 40 18
14 41 48
14 42 77
14 43 146
14 44 98
14 45 36
14 46 45
14 47 27
14 48 41
14 49 43
14 50 55
15 16 115
15 17 61
15 18 110
15 19 126
15 20 84
15 21 71
15 22 9
15 23 26
15 24 106
15 25 68
15 26 37
15 27 15
15 28 98
15 29 29
15 30 32
15 31 75
15 32 87
15 33 26
15 34 67
15 35 77
15 36 39
15 37 139
15 38 21
15 39 67
15 40 49
15 41 64
15 42 138
15 43 99
15 44 92
15 45 125
15 46 9
15 47 7
15 48 91
15 49 131
15 50 8
16 17 50
16 18 76
16 19 99
16 20 127
16 21 136
16 22 98
16 23 5
16 24 34
16 25 129
16 26 30
16 27 136
16 28 22
16 29 68
16 30 16
16 31 92
16 32 19
16 33 18
16 34 54
16 35 21
16 36 79
16 37 119
16 38 93
16 39 18
16 40 105
16 41 56
16 42 68
16 43 105
16 44 18
16 45 83
16 46 101
16 47 103
16 48 85
16 49 101
16 50 33
17 18 44
17 19 87
17 20 10
17 21 30
17 22 8
17 23 61
17 24 28
17 25 70
17 26 143
17 27 44
17 28 23
17 29 73
17 30 69
17 31 36
17 32 41
17 33 24
17 34 78
17 35 29
17 36 42
17 37 53
17 38 55
17 39 25
17 40 62
17 41 35
17 42 79
17 43 142
17 44 21
17 45 28
17 46 60
17 47 140
17 48 75
17 49 84
17 50 48
18 19 111
18 20 101
18 21 126
18 22 142
18 23 116
18 24 95
18 25 98
18 26 30
18 27 111
18 28 88
18 29 120
18 30 64
18 31 108
18 32 81
18 33 66
18 34 107
18 35 30
18 36 108
18 37 88
18 38 125
18 39 33
18 40 141
18 41 79
18 42 144
18 43 107
18 44 35
18 45 97
18 46 87
18 47 148
18 48 27
18 49 143
18 50 90
19 20 109
19 21 142
19 22 45
19 23 47
19 24 51
19 25 52
19 26 135
19 27 110
19 28 1
19 29 126
19 30 96
19 31 45
19 32 66
19 33 102
19 34 52
19 35 137
19 36 77
19 37 63
19 38 47
19 39 85
19 40 112
19 41 132
19 42 114
19 43 147
19 44 3
19 45 33
19 46 68
19 47 4
19 48 123
19 49 65
19 50 13
20 21 57
20 22 74
20 23 104
20 24 79
20 25 86
20 26 10
20 27 85
20 28 9
20 29 115
20 30 16
20 31 4
20 32 59
20 33 108
20 34 62
20 35 5
20 36 122
20 37 141
20 38 143
20 39 121
20 40 144
20 41 21
20 42 76
20 43 80
20 44 80
20 45 96
20 46 87
20 47 120
20 48 120
20 49 60
20 50 4
21 22 124
21 23 46
21 24 76
21 25 100
21 26 0
21 27 52
21 28 94
21 29 36
21 30 27
21 31 87
21 32 49
21 33 78
21 34 13
21 35 3
21 36 125
21 37 38
21 38 31
21 39 14
21 40 53
21 41 92
21 42 6
21 43 4
21 44 105
21 45 93
21 46 134
21 47 64
21 48 131
21 49 50
21 50 121
22 23 106
22 24 146
22 25 94
22 26 33
22 27 38
22 28 16
22 29 144
22 30 50
22 31 53
22 32 11
22 33 12
22 34 55
22 35 82
22 36 82
22 37 50
22 38 58
22 39 31
22 40 84
22 41 136
22 42 147
22 43 14
22 44 79
22 45 99
22 46 48
22 47 100
22 48 61
22 49 12
22 50 121
23 24 14
23 25 35
23 26 95
23 27 125
23 28 46
23 29 52
23 30 4
23 31 48
23 32 94
23 33 143
23 34 13
23 35 78
23 36 52
23 37 47
23 38 82
23 39 2
23 40 84
23 41 146
23 42 30
23 43 115
23 44 21
23 45 38
23 46 104
23 47 144
23 48 111
23 49 32
23 50 134
24 25 24
24 26 127
24 27 89
24 28 107
24 29 131
24 30 124
24 31 62
24 32 121
24 33 43
24 34 36
24 35 82
24 36 43
24 37 6
24 38 35
24 39 74
24 40 45
24 41 78
24 42 85
24 43 107
24 44 50
24 45 132
24 46 77
24 47 34
24 48 4
24 49 78
24 50 99
25 26 121
25 27 128
25 28 45
25 29 109
25 30 146
25 31 97
25 32 0
25 33 39
25 34 135
25 35 74
25 36 134
25 37 74
25 38 13
25 39 139
25 40 120
25 41 130
25 42 96
25 43 124
25 44 72
25 45 121
25 46 33
25 47 65
25 48 76
25 49 73
25 50 40
26 27 51
26 28 148
26 29 103
26 30 12
26 31 36
26 32 62
26 33 113
26 34 82
26 35 107
26 36 92
26 37 89
26 38 31
26 39 132
26 40 16
26 41 135
26 42 6
26 43 147
26 44 110
26 45 11
26 46 58
26 47 43
26 48 39
26 49 123
26 50 61
27 28 113
27 29 96
27 30 148
27 31 113
27 32 4
27 33 148
27 34 20
27 35 58
27 36 89
27 37 27
27 38 80
27 39 47
27 40 33
27 41 137
27 42 116
27 43 14
27 44 76
27 45 33
27 46 4
27 47 108
27 48 47
27 49 83
27 50 42
28 29 45
28 30 65
28 31 75
28 32 7
28 33 78
28 34 16
28 35 68
28 36 45
28 37 60
28 38 71
28 39 97
28 40 56
28 41 54
28 42 147
28 43 62
28 44 18
28 45 94
28 46 123
28 47 24
28 48 84
28 49 24
28 50 31
29 30 107
29 31 141
29 32 85
29 33 37
29 34 116
29 35 140
29 36 84
29 37 115
29 38 76
29 39 69
29 40 0
29 41 64
29 42 91
29 43 107
29 44 71
29 45 106
29 46 23
29 47 129
29 48 124
29 49 108
29 50 57
30 31 77
30 32 105
30 33 25
30 34 24
30 35 120
30 36 36
30 37 0
30 38 32
30 39 88
30 40 29
30 41 108
30 42 2
30 43 33
30 44 75
30 45 89
30 46 26
30 47 5
30 48 85
30 49 93
30 50 129
31 32 100
31 33 41
31 34 110
31 35 112
31 36 79
31 37 3
31 38 25
31 39 16
31 40 68
31 41 69
31 42 36
31 43 50
31 44 125
31 45 119
31 46 121
31 47 102
31 48 69
31 49 149
31 50 137
32 33 103
32 34 77
32 35 51
32 36 80
32 37 126
32 38 100
32 39 109
32 40 114
32 41 93
32 42 111
32 43 130
32 44 32
32 45 13
32 46 39
32 47 139
32 48 119
32 49 24
32 50 102
33 34 20
33 35 77
33 36 47
33 37 15
33 38 49
33 39 102
33 40 65
33 41 42
33 42 78
33 43 33
33 44 82
33 45 83
33 46 115
33 47 109
33 48 73
33 49 43
33 50 102
34 35 2
34 36 54
34 37 116
34 38 69
34 39 140
34 40 104
34 41 87
34 42 139
34 43 140
34 44 135
34 45 24
34 46 13
34 47 115
34 48 74
34 49 85
34 50 70
35 36 34
35 37 66
35 38 112
35 39 124
35 40 18
35 41 23
35 42 125
35 43 81
35 44 77
35 45 125
35 46 17
35 47 116
35 48 8
35 49 32
35 50 57
36 37 148
36 38 72
36 39 4
36 40 116
36 41 30
36 42 8
36 43 41
36 44 95
36 45 10
36 46 134
36 47 83
36 48 143
36 49 95
36 50 25
37 38 66
37 39 60
37 40 112
37 41 122
37 42 53
37 43 49
37 44 110
37 45 15
37 46 56
37 47 130
37 48 40
37 49 70
37 50 87
38 39 115
38 40 20
38 41 27
38 42 142
38 43 49
38 44 123
38 45 100
38 46 54
38 47 40
38 48 121
38 49 8
38 50 15
39 40 59
39 41 12
39 42 6
39 43 4
39 44 16
39 45 33
39 46 7
39 47 73
39 48 133
39 49 107
39 50 16
40 41 83
40 42 60
40 43 18
40 44 104
40 45 55
40 46 115
40 47 19
40 48 81
40 49 88
40 50 111
41 42 57
41 43 85
41 44 120
41 45 3
41 46 148
41 47 3
41 48 63
41 49 2
41 50 142
42 43 104
42 44 20
42 45 9
42 46 140
42 47 71
42 48 99
42 49 8
42 50 47
43 44 56
43 45 102
43 46 53
43 47 3
43 48 71
43 49 27
43 50 65
44 45 145
44 46 112
44 47 106
44 48 78
44 49 35
44 50 144
45 46 3
45 47 58
45 48 120
45 49 77
45 50 7
46 47 74
46 48 117
46 49 117
46 50 99
47 48 70
47 49 76
47 50 77
48 49 117
48 50 54
49 50 95
